
Gurobi 10.0.3 (win64, Python) logging started Mon Dec 18 18:16:43 2023

Set parameter Username
Set parameter LogFile to value "gurobi.log"
Academic license - for non-commercial use only - expires 2024-09-16
Read LP format model from file few9_multi.lp
Reading time = 0.02 seconds
: 6249 rows, 1720 columns, 34896 nonzeros
Set parameter PoolSearchMode to value 2
Set parameter PoolSolutions to value 4
Set parameter PoolGap to value 0
Set parameter SolFiles to value ".\few9_multi"
Gurobi Optimizer version 10.0.3 build v10.0.3rc0 (win64)

CPU model: Intel(R) Core(TM) i7-8565U CPU @ 1.80GHz, instruction set [SSE2|AVX|AVX2]
Thread count: 4 physical cores, 8 logical processors, using up to 8 threads

Optimize a model with 6249 rows, 1720 columns and 34896 nonzeros
Model fingerprint: 0x9400b3ea
Variable types: 0 continuous, 1720 integer (1720 binary)
Coefficient statistics:
  Matrix range     [1e+00, 8e+00]
  Objective range  [2e+00, 3e+00]
  Bounds range     [1e+00, 1e+00]
  RHS range        [1e+00, 7e+00]
Presolve removed 2666 rows and 758 columns
Presolve time: 0.10s
Presolved: 3583 rows, 962 columns, 19917 nonzeros
Variable types: 0 continuous, 962 integer (962 binary)

Root relaxation: objective 2.200000e+01, 339 iterations, 0.01 seconds (0.01 work units)

    Nodes    |    Current Node    |     Objective Bounds      |     Work
 Expl Unexpl |  Obj  Depth IntInf | Incumbent    BestBd   Gap | It/Node Time

     0     0   22.00000    0   81          -   22.00000      -     -    0s
     0     0   23.61731    0  202          -   23.61731      -     -    0s
     0     0   25.15736    0  266          -   25.15736      -     -    0s
     0     0   25.84798    0  311          -   25.84798      -     -    0s
     0     0   25.92957    0  290          -   25.92957      -     -    0s
     0     0   26.00826    0  290          -   26.00826      -     -    0s
     0     0   26.07915    0  364          -   26.07915      -     -    0s
     0     0   26.09776    0  365          -   26.09776      -     -    0s
     0     0   26.11754    0  364          -   26.11754      -     -    0s
     0     0   26.13810    0  366          -   26.13810      -     -    0s
     0     0   26.14092    0  360          -   26.14092      -     -    0s
     0     0   26.14109    0  371          -   26.14109      -     -    0s
     0     0   27.40167    0  436          -   27.40167      -     -    0s
     0     0   28.09930    0  438          -   28.09930      -     -    0s
     0     0   29.05384    0  405          -   29.05384      -     -    1s
     0     0   29.28304    0  396          -   29.28304      -     -    1s
     0     0   29.37852    0  428          -   29.37852      -     -    1s
     0     0   29.43121    0  443          -   29.43121      -     -    1s
     0     0   29.44766    0  441          -   29.44766      -     -    1s
     0     0   29.48419    0  440          -   29.48419      -     -    1s
     0     0   29.49191    0  446          -   29.49191      -     -    1s
     0     0   29.49402    0  443          -   29.49402      -     -    1s
     0     0   29.49423    0  445          -   29.49423      -     -    1s
     0     0   30.45166    0  477          -   30.45166      -     -    1s
     0     0   30.63870    0  432          -   30.63870      -     -    1s
     0     0   30.78875    0  427          -   30.78875      -     -    1s
     0     0   30.98961    0  461          -   30.98961      -     -    1s
     0     0   31.02382    0  491          -   31.02382      -     -    1s
     0     0   31.03809    0  481          -   31.03809      -     -    1s
     0     0   31.05354    0  472          -   31.05354      -     -    1s
     0     0   31.05483    0  450          -   31.05483      -     -    1s
     0     0   31.20853    0  477          -   31.20853      -     -    2s
     0     0   31.34587    0  442          -   31.34587      -     -    2s
     0     0   31.44813    0  443          -   31.44813      -     -    2s
     0     0   31.54476    0  474          -   31.54476      -     -    2s
     0     0   31.56974    0  478          -   31.56974      -     -    2s
     0     0   31.59920    0  478          -   31.59920      -     -    2s
     0     0   31.60708    0  481          -   31.60708      -     -    2s
     0     0   31.60825    0  472          -   31.60825      -     -    2s
     0     0   31.66188    0  502          -   31.66188      -     -    2s
     0     0   31.70867    0  497          -   31.70867      -     -    2s
     0     0   31.73655    0  529          -   31.73655      -     -    2s
     0     0   31.76769    0  547          -   31.76769      -     -    2s
     0     0   31.79252    0  535          -   31.79252      -     -    2s
     0     0   31.79746    0  537          -   31.79746      -     -    2s
     0     0   31.81521    0  542          -   31.81521      -     -    2s
     0     0   31.82464    0  552          -   31.82464      -     -    2s
     0     0   31.82877    0  554          -   31.82877      -     -    2s
     0     0   31.82923    0  549          -   31.82923      -     -    2s
     0     0   32.21824    0  472          -   32.21824      -     -    3s
     0     0   32.67982    0  506          -   32.67982      -     -    3s
     0     0   32.71599    0  507          -   32.71599      -     -    3s
     0     0   32.84405    0  507          -   32.84405      -     -    3s
     0     0   32.86558    0  479          -   32.86558      -     -    3s
     0     0   32.86647    0  474          -   32.86647      -     -    3s
     0     0   33.45557    0  491          -   33.45557      -     -    3s
     0     0   33.83013    0  501          -   33.83013      -     -    3s
     0     0   33.87783    0  473          -   33.87783      -     -    3s
     0     0   33.93983    0  500          -   33.93983      -     -    3s
     0     0   33.98189    0  508          -   33.98189      -     -    3s
     0     0   34.00325    0  488          -   34.00325      -     -    3s
     0     0   34.01064    0  494          -   34.01064      -     -    3s
     0     0   34.01732    0  506          -   34.01732      -     -    3s
     0     0   34.01855    0  509          -   34.01855      -     -    3s
     0     0   34.35990    0  469          -   34.35990      -     -    4s
     0     0   34.81594    0  391          -   34.81594      -     -    4s
     0     0   34.87826    0  455          -   34.87826      -     -    4s
     0     0   35.01482    0  487          -   35.01482      -     -    4s
     0     0   35.12808    0  482          -   35.12808      -     -    4s
     0     0   35.15767    0  485          -   35.15767      -     -    4s
     0     0   35.16960    0  484          -   35.16960      -     -    4s
     0     0   35.18311    0  468          -   35.18311      -     -    4s
     0     0   35.18512    0  463          -   35.18512      -     -    4s
     0     0   35.22544    0  478          -   35.22544      -     -    4s
     0     0   35.22965    0  467          -   35.22965      -     -    4s
     0     0   35.23318    0  486          -   35.23318      -     -    4s
     0     0   35.24020    0  467          -   35.24020      -     -    4s
     0     0   35.35172    0  463          -   35.35172      -     -    4s
     0     0   35.37932    0  488          -   35.37932      -     -    4s
     0     0   35.42033    0  477          -   35.42033      -     -    4s
     0     0   35.43247    0  493          -   35.43247      -     -    4s
     0     0   35.43588    0  489          -   35.43588      -     -    4s
     0     0   35.50989    0  483          -   35.50989      -     -    5s
     0     0   35.52220    0  502          -   35.52220      -     -    5s
     0     0   35.52579    0  519          -   35.52579      -     -    5s
     0     0   35.54379    0  510          -   35.54379      -     -    5s
     0     0   35.54872    0  485          -   35.54872      -     -    5s
     0     0   35.54907    0  515          -   35.54907      -     -    5s
     0     0   35.56625    0  477          -   35.56625      -     -    5s
     0     0   35.56625    0  441          -   35.56625      -     -    5s
     0     2   35.56625    0  441          -   35.56625      -     -    5s
  1063   757   37.99857   14  557          -   36.97429      -  33.5   10s
  1085   772   37.90142   15  585          -   37.90142      -  32.8   15s
  1102   783   64.00000   62  614          -   38.16338      -  32.3   20s
  1126   800   38.41898   10  599          -   38.41898      -  49.0   25s
  1141   810   40.13370   14  603          -   38.72274      -  48.4   30s
  1163   825   39.06897   14  613          -   39.06897      -  47.5   35s
  1235   878   40.26089   40  537          -   39.29914      -  89.1   40s
  1408   992   56.29895   64  361          -   39.29914      -   130   45s
  1720  1105   41.80419   45  444          -   39.30106      -   149   52s
  2004  1301 infeasible   70               -   39.30106      -   159   55s
  2418  1499   57.58526   60  272          -   39.66933      -   175   60s
  3152  1746   43.55928   43  455          -   39.75384      -   165   65s
  3697  2017   69.83333   66  218          -   39.76191      -   171   70s
  4301  2556   44.72870   46  418          -   39.83009      -   170   75s
  5080  3214   45.19480   42  359          -   39.86498      -   166   80s
  5732  3709 infeasible   88               -   39.89988      -   164   85s
  6351  4244   47.06017   49  404          -   39.91896      -   165   90s
  6792  4710   42.72200   39  394          -   39.95944      -   165   96s
  7306  5210   43.72451   48  457          -   39.96889      -   165  100s
  8353  5743   41.24556   36  466          -   40.00424      -   162  106s
  8840  6139   51.07660   54  358          -   40.05274      -   164  111s
  9475  6702   84.50000  100  147          -   40.05954      -   164  116s
 10183  7242   44.33537   47  441          -   40.09867      -   164  121s
 11042  7880   41.21608   38  520          -   40.18071      -   164  126s
 11749  8627   49.31747   54  335          -   40.20336      -   164  132s
 12676  9299   50.67554   43  357          -   40.21597      -   163  137s
 13063  9547   80.00000   66  113          -   40.25502      -   163  140s
 13555  9934   57.33333   67  183          -   40.26378      -   162  146s
 14227 10653   44.31795   41  450          -   40.31374      -   163  153s
 14822 10972   54.33828   57  273          -   40.34753      -   162  156s
 15609 11688   46.25333   55  285          -   40.39268      -   162  163s
 16167 12051   43.19117   45  416          -   40.40973      -   161  166s
 16922 12573   47.46918   48  444          -   40.44274      -   161  172s
 17305 12877   68.00000   75  188          -   40.46548      -   161  175s
 18011 13290   41.61513   48  476          -   40.51214      -   161  181s
 18268 13617 infeasible   60               -   40.51980      -   162  185s
 19288 14139   44.45724   41  442          -   40.56882      -   161  194s
 19355 14440   44.93248   43  404          -   40.57456      -   161  198s
 19762 14942   43.70301   46  407          -   40.60383      -   160  201s

Cutting planes:
  Gomory: 5
  Cover: 18
  Implied bound: 1
  Clique: 5
  MIR: 4
  StrongCG: 1
  Flow cover: 89
  GUB cover: 3
  Zero half: 103
  RLT: 22

Explored 20704 nodes (3322219 simplex iterations) in 229.69 seconds (257.10 work units)
Thread count was 8 (of 8 available processors)

Solution count 0

Solve interrupted
Best objective -, best bound 4.100000000000e+01, gap -
